NAME: PointSet_Angle_30_1
TYPE: TSP
COMMENT: Points chosen discrete uniformly at random out of ${0, \ldots, 500}^2$.
DIMENSION: 30
EDGE_WEIGHT_TYPE: EUC_2D
NODE_COORD_SECTION
1 389 454
2 35 190
3 438 64
4 148 326
5 182 425
6 160 329
7 113 159
8 454 57
9 163 409
10 61 20
11 200 300
12 230 498
13 466 350
14 381 183
15 295 394
16 93 430
17 347 376
18 119 31
19 440 267
20 357 368
21 191 264
22 196 305
23 423 396
24 108 333
25 51 417
26 353 251
27 216 83
28 248 428
29 433 375
30 110 227
EOF
